p cnf 967 2484
51 -2 -700 0
-51 2 0
-51 700 0
52 -51 -3 0
-52 51 0
-52 3 0
53 -5 -4 0
-53 5 0
-53 4 0
54 -53 -701 0
-54 53 0
-54 701 0
55 -702 -703 0
-55 702 0
-55 703 0
56 -704 -705 0
-56 704 0
-56 705 0
57 -56 -2 0
-57 56 0
-57 2 0
58 -706 -55 0
-58 706 0
-58 55 0
59 -9 -1 0
-59 9 0
-59 1 0
60 -59 -707 0
-60 59 0
-60 707 0
61 -708 -58 0
-61 708 0
-61 58 0
62 -12 -11 0
-62 12 0
-62 11 0
63 -62 -709 0
-63 62 0
-63 709 0
64 -710 -61 0
-64 710 0
-64 61 0
65 -711 -4 0
-65 711 0
-65 4 0
66 -65 -13 0
-66 65 0
-66 13 0
67 -712 -64 0
-67 712 0
-67 64 0
68 -713 -714 0
-68 713 0
-68 714 0
69 -68 -709 0
-69 68 0
-69 709 0
70 -715 -67 0
-70 715 0
-70 67 0
71 -716 -17 0
-71 716 0
-71 17 0
72 -71 -19 0
-72 71 0
-72 19 0
73 -717 -70 0
-73 717 0
-73 70 0
74 -20 -4 0
-74 20 0
-74 4 0
75 -74 -10 0
-75 74 0
-75 10 0
76 -718 -73 0
-76 718 0
-76 73 0
77 -21 -719 0
-77 21 0
-77 719 0
78 -77 -720 0
-78 77 0
-78 720 0
79 -721 -76 0
-79 721 0
-79 76 0
80 -23 -704 0
-80 23 0
-80 704 0
81 -80 -10 0
-81 80 0
-81 10 0
82 -722 -79 0
-82 722 0
-82 79 0
83 -723 -724 0
-83 723 0
-83 724 0
84 -83 -725 0
-84 83 0
-84 725 0
85 -726 -82 0
-85 726 0
-85 82 0
86 -727 -23 0
-86 727 0
-86 23 0
87 -86 -728 0
-87 86 0
-87 728 0
88 -729 -85 0
-88 729 0
-88 85 0
89 -29 -28 0
-89 29 0
-89 28 0
90 -89 -19 0
-90 89 0
-90 19 0
91 -730 -88 0
-91 730 0
-91 88 0
92 -24 -8 0
-92 24 0
-92 8 0
93 -92 -731 0
-93 92 0
-93 731 0
94 -732 -91 0
-94 732 0
-94 91 0
95 -30 -714 0
-95 30 0
-95 714 0
96 -95 -29 0
-96 95 0
-96 29 0
97 -733 -94 0
-97 733 0
-97 94 0
98 -31 -9 0
-98 31 0
-98 9 0
99 -98 -734 0
-99 98 0
-99 734 0
100 -735 -97 0
-100 735 0
-100 97 0
101 -736 -737 0
-101 736 0
-101 737 0
102 -101 -26 0
-102 101 0
-102 26 0
103 -738 -100 0
-103 738 0
-103 100 0
104 -24 -719 0
-104 24 0
-104 719 0
105 -104 -29 0
-105 104 0
-105 29 0
106 -739 -103 0
-106 739 0
-106 103 0
107 -740 -741 0
-107 740 0
-107 741 0
108 -107 -7 0
-108 107 0
-108 7 0
109 -742 -106 0
-109 742 0
-109 106 0
110 -27 -8 0
-110 27 0
-110 8 0
111 -110 -743 0
-111 110 0
-111 743 0
112 -744 -109 0
-112 744 0
-112 109 0
113 -711 -700 0
-113 711 0
-113 700 0
114 -113 -745 0
-114 113 0
-114 745 0
115 -746 -112 0
-115 746 0
-115 112 0
116 -23 -719 0
-116 23 0
-116 719 0
117 -116 -720 0
-117 116 0
-117 720 0
118 -747 -115 0
-118 747 0
-118 115 0
119 -748 -4 0
-119 748 0
-119 4 0
120 -119 -35 0
-120 119 0
-120 35 0
121 -749 -118 0
-121 749 0
-121 118 0
122 -716 -700 0
-122 716 0
-122 700 0
123 -122 -731 0
-123 122 0
-123 731 0
124 -750 -121 0
-124 750 0
-124 121 0
125 -31 -704 0
-125 31 0
-125 704 0
126 -125 -22 0
-126 125 0
-126 22 0
127 -751 -124 0
-127 751 0
-127 124 0
128 -748 -7 0
-128 748 0
-128 7 0
129 -128 -707 0
-129 128 0
-129 707 0
130 -752 -127 0
-130 752 0
-130 127 0
131 -23 -17 0
-131 23 0
-131 17 0
132 -131 -753 0
-132 131 0
-132 753 0
133 -754 -130 0
-133 754 0
-133 130 0
134 -27 -723 0
-134 27 0
-134 723 0
135 -134 -743 0
-135 134 0
-135 743 0
136 -755 -133 0
-136 755 0
-136 133 0
137 -35 -15 0
-137 35 0
-137 15 0
138 -137 -756 0
-138 137 0
-138 756 0
139 -757 -136 0
-139 757 0
-139 136 0
140 -36 -720 0
-140 36 0
-140 720 0
141 -140 -29 0
-141 140 0
-141 29 0
142 -758 -139 0
-142 758 0
-142 139 0
143 -759 -737 0
-143 759 0
-143 737 0
144 -143 -37 0
-144 143 0
-144 37 0
145 -760 -142 0
-145 760 0
-145 142 0
146 -743 -11 0
-146 743 0
-146 11 0
147 -146 -38 0
-147 146 0
-147 38 0
148 -761 -145 0
-148 761 0
-148 145 0
149 -25 -5 0
-149 25 0
-149 5 0
150 -149 -745 0
-150 149 0
-150 745 0
151 -762 -148 0
-151 762 0
-151 148 0
152 -763 -32 0
-152 763 0
-152 32 0
153 -152 -709 0
-153 152 0
-153 709 0
154 -764 -151 0
-154 764 0
-154 151 0
155 -31 -711 0
-155 31 0
-155 711 0
156 -155 -713 0
-156 155 0
-156 713 0
157 -765 -154 0
-157 765 0
-157 154 0
158 -40 -713 0
-158 40 0
-158 713 0
159 -158 -716 0
-159 158 0
-159 716 0
160 -766 -157 0
-160 766 0
-160 157 0
161 -41 -759 0
-161 41 0
-161 759 0
162 -161 -720 0
-162 161 0
-162 720 0
163 -767 -160 0
-163 767 0
-163 160 0
164 -768 -3 0
-164 768 0
-164 3 0
165 -164 -22 0
-165 164 0
-165 22 0
166 -769 -163 0
-166 769 0
-166 163 0
167 -741 -737 0
-167 741 0
-167 737 0
168 -167 -713 0
-168 167 0
-168 713 0
169 -770 -166 0
-169 770 0
-169 166 0
170 -724 -714 0
-170 724 0
-170 714 0
171 -170 -771 0
-171 170 0
-171 771 0
172 -772 -169 0
-172 772 0
-172 169 0
173 -741 -704 0
-173 741 0
-173 704 0
174 -173 -10 0
-174 173 0
-174 10 0
175 -773 -172 0
-175 773 0
-175 172 0
176 -37 -768 0
-176 37 0
-176 768 0
177 -176 -43 0
-177 176 0
-177 43 0
178 -774 -175 0
-178 774 0
-178 175 0
179 -11 -719 0
-179 11 0
-179 719 0
180 -179 -44 0
-180 179 0
-180 44 0
181 -775 -178 0
-181 775 0
-181 178 0
182 -33 -759 0
-182 33 0
-182 759 0
183 -182 -38 0
-183 182 0
-183 38 0
184 -776 -181 0
-184 776 0
-184 181 0
185 -45 -23 0
-185 45 0
-185 23 0
186 -185 -46 0
-186 185 0
-186 46 0
187 -777 -184 0
-187 777 0
-187 184 0
188 -31 -23 0
-188 31 0
-188 23 0
189 -188 -709 0
-189 188 0
-189 709 0
190 -778 -187 0
-190 778 0
-190 187 0
191 -40 -27 0
-191 40 0
-191 27 0
192 -191 -14 0
-192 191 0
-192 14 0
193 -779 -190 0
-193 779 0
-193 190 0
194 -45 -724 0
-194 45 0
-194 724 0
195 -194 -780 0
-195 194 0
-195 780 0
196 -781 -193 0
-196 781 0
-196 193 0
197 -16 -728 0
-197 16 0
-197 728 0
198 -197 -6 0
-198 197 0
-198 6 0
199 -782 -196 0
-199 782 0
-199 196 0
200 -771 -34 0
-200 771 0
-200 34 0
201 -200 -716 0
-201 200 0
-201 716 0
202 -783 -199 0
-202 783 0
-202 199 0
203 -33 -1 0
-203 33 0
-203 1 0
204 -203 -784 0
-204 203 0
-204 784 0
205 -785 -202 0
-205 785 0
-205 202 0
206 -720 -8 0
-206 720 0
-206 8 0
207 -206 -18 0
-207 206 0
-207 18 0
208 -786 -205 0
-208 786 0
-208 205 0
209 -43 -8 0
-209 43 0
-209 8 0
210 -209 -771 0
-210 209 0
-210 771 0
211 -787 -208 0
-211 787 0
-211 208 0
212 -31 -759 0
-212 31 0
-212 759 0
213 -212 -714 0
-213 212 0
-213 714 0
214 -788 -211 0
-214 788 0
-214 211 0
215 -789 -35 0
-215 789 0
-215 35 0
216 -215 -707 0
-216 215 0
-216 707 0
217 -790 -214 0
-217 790 0
-217 214 0
218 -42 -23 0
-218 42 0
-218 23 0
219 -218 -791 0
-219 218 0
-219 791 0
220 -792 -217 0
-220 792 0
-220 217 0
221 -21 -20 0
-221 21 0
-221 20 0
222 -221 -14 0
-222 221 0
-222 14 0
223 -793 -220 0
-223 793 0
-223 220 0
224 -794 -704 0
-224 794 0
-224 704 0
225 -224 -10 0
-225 224 0
-225 10 0
226 -795 -223 0
-226 795 0
-226 223 0
227 -209 -16 0
-227 209 0
-227 16 0
228 -796 -226 0
-228 796 0
-228 226 0
229 -35 -7 0
-229 35 0
-229 7 0
230 -229 -17 0
-230 229 0
-230 17 0
231 -797 -228 0
-231 797 0
-231 228 0
232 -720 -7 0
-232 720 0
-232 7 0
233 -232 -716 0
-233 232 0
-233 716 0
234 -798 -231 0
-234 798 0
-234 231 0
235 -748 -714 0
-235 748 0
-235 714 0
236 -235 -7 0
-236 235 0
-236 7 0
237 -799 -234 0
-237 799 0
-237 234 0
238 -48 -800 0
-238 48 0
-238 800 0
239 -238 -19 0
-239 238 0
-239 19 0
240 -801 -237 0
-240 801 0
-240 237 0
241 -14 -802 0
-241 14 0
-241 802 0
242 -241 -794 0
-242 241 0
-242 794 0
243 -803 -240 0
-243 803 0
-243 240 0
244 -713 -707 0
-244 713 0
-244 707 0
245 -244 -47 0
-245 244 0
-245 47 0
246 -804 -243 0
-246 804 0
-246 243 0
247 -49 -768 0
-247 49 0
-247 768 0
248 -247 -12 0
-248 247 0
-248 12 0
249 -805 -246 0
-249 805 0
-249 246 0
250 -143 -15 0
-250 143 0
-250 15 0
251 -806 -249 0
-251 806 0
-251 249 0
252 -737 -807 0
-252 737 0
-252 807 0
253 -252 -791 0
-253 252 0
-253 791 0
254 -808 -251 0
-254 808 0
-254 251 0
255 -46 -728 0
-255 46 0
-255 728 0
256 -255 -809 0
-256 255 0
-256 809 0
257 -810 -254 0
-257 810 0
-257 254 0
258 -46 -27 0
-258 46 0
-258 27 0
259 -258 -36 0
-259 258 0
-259 36 0
260 -811 -257 0
-260 811 0
-260 257 0
261 -812 -700 0
-261 812 0
-261 700 0
262 -261 -47 0
-262 261 0
-262 47 0
263 -813 -260 0
-263 813 0
-263 260 0
264 -791 -784 0
-264 791 0
-264 784 0
265 -264 -734 0
-265 264 0
-265 734 0
266 -814 -263 0
-266 814 0
-266 263 0
267 -46 -8 0
-267 46 0
-267 8 0
268 -267 -731 0
-268 267 0
-268 731 0
269 -815 -266 0
-269 815 0
-269 266 0
270 -725 -15 0
-270 725 0
-270 15 0
271 -270 -713 0
-271 270 0
-271 713 0
272 -816 -269 0
-272 816 0
-272 269 0
273 -31 -714 0
-273 31 0
-273 714 0
274 -273 -745 0
-274 273 0
-274 745 0
275 -817 -272 0
-275 817 0
-275 272 0
276 -780 -9 0
-276 780 0
-276 9 0
277 -276 -36 0
-277 276 0
-277 36 0
278 -818 -275 0
-278 818 0
-278 275 0
279 -737 -8 0
-279 737 0
-279 8 0
280 -279 -756 0
-280 279 0
-280 756 0
281 -819 -278 0
-281 819 0
-281 278 0
282 -820 -4 0
-282 820 0
-282 4 0
283 -282 -701 0
-283 282 0
-283 701 0
284 -821 -281 0
-284 821 0
-284 281 0
285 -720 -20 0
-285 720 0
-285 20 0
286 -285 -47 0
-286 285 0
-286 47 0
287 -822 -284 0
-287 822 0
-287 284 0
288 -748 -812 0
-288 748 0
-288 812 0
289 -288 -791 0
-289 288 0
-289 791 0
290 -823 -287 0
-290 823 0
-290 287 0
291 -33 -725 0
-291 33 0
-291 725 0
292 -291 -800 0
-292 291 0
-292 800 0
293 -824 -290 0
-293 824 0
-293 290 0
294 -825 -3 0
-294 825 0
-294 3 0
295 -294 -753 0
-295 294 0
-295 753 0
296 -826 -293 0
-296 826 0
-296 293 0
297 -34 -1 0
-297 34 0
-297 1 0
298 -297 -791 0
-298 297 0
-298 791 0
299 -827 -296 0
-299 827 0
-299 296 0
300 -723 -4 0
-300 723 0
-300 4 0
301 -300 -753 0
-301 300 0
-301 753 0
302 -828 -299 0
-302 828 0
-302 299 0
303 -745 -1 0
-303 745 0
-303 1 0
304 -303 -829 0
-304 303 0
-304 829 0
305 -830 -302 0
-305 830 0
-305 302 0
306 -41 -740 0
-306 41 0
-306 740 0
307 -306 -704 0
-307 306 0
-307 704 0
308 -831 -305 0
-308 831 0
-308 305 0
309 -20 -807 0
-309 20 0
-309 807 0
310 -309 -737 0
-310 309 0
-310 737 0
311 -832 -308 0
-311 832 0
-311 308 0
312 -42 -800 0
-312 42 0
-312 800 0
313 -312 -713 0
-313 312 0
-313 713 0
314 -833 -311 0
-314 833 0
-314 311 0
315 -763 -18 0
-315 763 0
-315 18 0
316 -315 -6 0
-316 315 0
-316 6 0
317 -834 -314 0
-317 834 0
-317 314 0
318 -829 -8 0
-318 829 0
-318 8 0
319 -318 -731 0
-319 318 0
-319 731 0
320 -835 -317 0
-320 835 0
-320 317 0
321 -812 -705 0
-321 812 0
-321 705 0
322 -321 -734 0
-322 321 0
-322 734 0
323 -836 -320 0
-323 836 0
-323 320 0
324 -46 -740 0
-324 46 0
-324 740 0
325 -324 -37 0
-325 324 0
-325 37 0
326 -837 -323 0
-326 837 0
-326 323 0
327 -21 -3 0
-327 21 0
-327 3 0
328 -327 -47 0
-328 327 0
-328 47 0
329 -838 -326 0
-329 838 0
-329 326 0
330 -825 -705 0
-330 825 0
-330 705 0
331 -330 -704 0
-331 330 0
-331 704 0
332 -839 -329 0
-332 839 0
-332 329 0
333 -720 -784 0
-333 720 0
-333 784 0
334 -333 -756 0
-334 333 0
-334 756 0
335 -840 -332 0
-335 840 0
-335 332 0
336 -841 -14 0
-336 841 0
-336 14 0
337 -336 -725 0
-337 336 0
-337 725 0
338 -842 -335 0
-338 842 0
-338 335 0
339 -820 -763 0
-339 820 0
-339 763 0
340 -339 -13 0
-340 339 0
-340 13 0
341 -843 -338 0
-341 843 0
-341 338 0
342 -725 -705 0
-342 725 0
-342 705 0
343 -342 -36 0
-343 342 0
-343 36 0
344 -844 -341 0
-344 844 0
-344 341 0
345 -24 -10 0
-345 24 0
-345 10 0
346 -345 -42 0
-346 345 0
-346 42 0
347 -845 -344 0
-347 845 0
-347 344 0
348 -720 -2 0
-348 720 0
-348 2 0
349 -348 -701 0
-349 348 0
-349 701 0
350 -846 -347 0
-350 846 0
-350 347 0
351 -9 -2 0
-351 9 0
-351 2 0
352 -351 -800 0
-352 351 0
-352 800 0
353 -847 -350 0
-353 847 0
-353 350 0
354 -809 -716 0
-354 809 0
-354 716 0
355 -354 -756 0
-355 354 0
-355 756 0
356 -848 -353 0
-356 848 0
-356 353 0
357 -45 -43 0
-357 45 0
-357 43 0
358 -357 -720 0
-358 357 0
-358 720 0
359 -849 -356 0
-359 849 0
-359 356 0
360 -705 -4 0
-360 705 0
-360 4 0
361 -360 -36 0
-361 360 0
-361 36 0
362 -850 -359 0
-362 850 0
-362 359 0
363 -40 -5 0
-363 40 0
-363 5 0
364 -363 -1 0
-364 363 0
-364 1 0
365 -851 -362 0
-365 851 0
-365 362 0
366 -794 -4 0
-366 794 0
-366 4 0
367 -366 -2 0
-367 366 0
-367 2 0
368 -852 -365 0
-368 852 0
-368 365 0
369 -723 -704 0
-369 723 0
-369 704 0
370 -369 -716 0
-370 369 0
-370 716 0
371 -853 -368 0
-371 853 0
-371 368 0
372 -724 -705 0
-372 724 0
-372 705 0
373 -372 -794 0
-373 372 0
-373 794 0
374 -854 -371 0
-374 854 0
-374 371 0
375 -41 -21 0
-375 41 0
-375 21 0
376 -375 -771 0
-376 375 0
-376 771 0
377 -855 -374 0
-377 855 0
-377 374 0
378 -740 -841 0
-378 740 0
-378 841 0
379 -378 -35 0
-379 378 0
-379 35 0
380 -856 -377 0
-380 856 0
-380 377 0
381 -784 -1 0
-381 784 0
-381 1 0
382 -381 -38 0
-382 381 0
-382 38 0
383 -857 -380 0
-383 857 0
-383 380 0
384 -794 -858 0
-384 794 0
-384 858 0
385 -384 -809 0
-385 384 0
-385 809 0
386 -859 -383 0
-386 859 0
-386 383 0
387 -741 -707 0
-387 741 0
-387 707 0
388 -387 -16 0
-388 387 0
-388 16 0
389 -860 -386 0
-389 860 0
-389 386 0
390 -28 -802 0
-390 28 0
-390 802 0
391 -390 -49 0
-391 390 0
-391 49 0
392 -861 -389 0
-392 861 0
-392 389 0
393 -46 -780 0
-393 46 0
-393 780 0
394 -393 -22 0
-394 393 0
-394 22 0
395 -862 -392 0
-395 862 0
-395 392 0
396 -40 -35 0
-396 40 0
-396 35 0
397 -396 -33 0
-397 396 0
-397 33 0
398 -863 -395 0
-398 863 0
-398 395 0
399 -46 -33 0
-399 46 0
-399 33 0
400 -399 -38 0
-400 399 0
-400 38 0
401 -864 -398 0
-401 864 0
-401 398 0
402 -812 -2 0
-402 812 0
-402 2 0
403 -402 -3 0
-403 402 0
-403 3 0
404 -865 -401 0
-404 865 0
-404 401 0
405 -43 -11 0
-405 43 0
-405 11 0
406 -405 -18 0
-406 405 0
-406 18 0
407 -866 -404 0
-407 866 0
-407 404 0
408 -40 -22 0
-408 40 0
-408 22 0
409 -408 -44 0
-409 408 0
-409 44 0
410 -867 -407 0
-410 867 0
-410 407 0
411 -740 -6 0
-411 740 0
-411 6 0
412 -411 -29 0
-412 411 0
-412 29 0
413 -868 -410 0
-413 868 0
-413 410 0
414 -40 -714 0
-414 40 0
-414 714 0
415 -414 -22 0
-415 414 0
-415 22 0
416 -869 -413 0
-416 869 0
-416 413 0
417 -780 -27 0
-417 780 0
-417 27 0
418 -417 -5 0
-418 417 0
-418 5 0
419 -870 -416 0
-419 870 0
-419 416 0
420 -794 -11 0
-420 794 0
-420 11 0
421 -420 -728 0
-421 420 0
-421 728 0
422 -871 -419 0
-422 871 0
-422 419 0
423 -48 -28 0
-423 48 0
-423 28 0
424 -423 -713 0
-424 423 0
-424 713 0
425 -872 -422 0
-425 872 0
-425 422 0
426 -30 -704 0
-426 30 0
-426 704 0
427 -426 -42 0
-427 426 0
-427 42 0
428 -873 -425 0
-428 873 0
-428 425 0
429 -720 -3 0
-429 720 0
-429 3 0
430 -429 -18 0
-430 429 0
-430 18 0
431 -874 -428 0
-431 874 0
-431 428 0
432 -28 -3 0
-432 28 0
-432 3 0
433 -432 -19 0
-433 432 0
-433 19 0
434 -875 -431 0
-434 875 0
-434 431 0
435 -727 -7 0
-435 727 0
-435 7 0
436 -435 -6 0
-436 435 0
-436 6 0
437 -876 -434 0
-437 876 0
-437 434 0
438 -35 -714 0
-438 35 0
-438 714 0
439 -438 -745 0
-439 438 0
-439 745 0
440 -877 -437 0
-440 877 0
-440 437 0
441 -17 -3 0
-441 17 0
-441 3 0
442 -441 -36 0
-442 441 0
-442 36 0
443 -878 -440 0
-443 878 0
-443 440 0
444 -768 -1 0
-444 768 0
-444 1 0
445 -444 -22 0
-445 444 0
-445 22 0
446 -879 -443 0
-446 879 0
-446 443 0
447 -41 -711 0
-447 41 0
-447 711 0
448 -447 -756 0
-448 447 0
-448 756 0
449 -880 -446 0
-449 880 0
-449 446 0
450 -725 -7 0
-450 725 0
-450 7 0
451 -450 -716 0
-451 450 0
-451 716 0
452 -881 -449 0
-452 881 0
-452 449 0
453 -27 -24 0
-453 27 0
-453 24 0
454 -453 -882 0
-454 453 0
-454 882 0
455 -883 -452 0
-455 883 0
-455 452 0
456 -39 -14 0
-456 39 0
-456 14 0
457 -456 -48 0
-457 456 0
-457 48 0
458 -884 -455 0
-458 884 0
-458 455 0
459 -736 -741 0
-459 736 0
-459 741 0
460 -459 -734 0
-460 459 0
-460 734 0
461 -885 -458 0
-461 885 0
-461 458 0
462 -46 -759 0
-462 46 0
-462 759 0
463 -462 -2 0
-463 462 0
-463 2 0
464 -886 -461 0
-464 886 0
-464 461 0
465 -23 -812 0
-465 23 0
-465 812 0
466 -465 -35 0
-466 465 0
-466 35 0
467 -887 -464 0
-467 887 0
-467 464 0
468 -28 -700 0
-468 28 0
-468 700 0
469 -468 -42 0
-469 468 0
-469 42 0
470 -888 -467 0
-470 888 0
-470 467 0
471 -20 -1 0
-471 20 0
-471 1 0
472 -471 -38 0
-472 471 0
-472 38 0
473 -889 -470 0
-473 889 0
-473 470 0
474 -809 -728 0
-474 809 0
-474 728 0
475 -474 -756 0
-475 474 0
-475 756 0
476 -890 -473 0
-476 890 0
-476 473 0
477 -43 -725 0
-477 43 0
-477 725 0
478 -477 -720 0
-478 477 0
-478 720 0
479 -891 -476 0
-479 891 0
-479 476 0
480 -794 -737 0
-480 794 0
-480 737 0
481 -480 -771 0
-481 480 0
-481 771 0
482 -892 -479 0
-482 892 0
-482 479 0
483 -763 -35 0
-483 763 0
-483 35 0
484 -483 -9 0
-484 483 0
-484 9 0
485 -893 -482 0
-485 893 0
-485 482 0
486 -737 -700 0
-486 737 0
-486 700 0
487 -486 -789 0
-487 486 0
-487 789 0
488 -894 -485 0
-488 894 0
-488 485 0
489 -727 -25 0
-489 727 0
-489 25 0
490 -489 -809 0
-490 489 0
-490 809 0
491 -895 -488 0
-491 895 0
-491 488 0
492 -40 -723 0
-492 40 0
-492 723 0
493 -492 -50 0
-493 492 0
-493 50 0
494 -896 -491 0
-494 896 0
-494 491 0
495 -740 -724 0
-495 740 0
-495 724 0
496 -495 -800 0
-496 495 0
-496 800 0
497 -897 -494 0
-497 897 0
-497 494 0
498 -34 -741 0
-498 34 0
-498 741 0
499 -498 -16 0
-499 498 0
-499 16 0
500 -898 -497 0
-500 898 0
-500 497 0
501 -829 -784 0
-501 829 0
-501 784 0
502 -501 -709 0
-502 501 0
-502 709 0
503 -899 -500 0
-503 899 0
-503 500 0
504 -714 -2 0
-504 714 0
-504 2 0
505 -504 -713 0
-505 504 0
-505 713 0
506 -900 -503 0
-506 900 0
-506 503 0
507 -841 -21 0
-507 841 0
-507 21 0
508 -507 -748 0
-508 507 0
-508 748 0
509 -901 -506 0
-509 901 0
-509 506 0
510 -794 -841 0
-510 794 0
-510 841 0
511 -510 -716 0
-511 510 0
-511 716 0
512 -902 -509 0
-512 902 0
-512 509 0
513 -40 -15 0
-513 40 0
-513 15 0
514 -513 -784 0
-514 513 0
-514 784 0
515 -903 -512 0
-515 903 0
-515 512 0
516 -28 -720 0
-516 28 0
-516 720 0
517 -516 -701 0
-517 516 0
-517 701 0
518 -904 -515 0
-518 904 0
-518 515 0
519 -10 -8 0
-519 10 0
-519 8 0
520 -519 -18 0
-520 519 0
-520 18 0
521 -905 -518 0
-521 905 0
-521 518 0
522 -42 -812 0
-522 42 0
-522 812 0
523 -522 -809 0
-523 522 0
-523 809 0
524 -906 -521 0
-524 906 0
-524 521 0
525 -43 -1 0
-525 43 0
-525 1 0
526 -525 -36 0
-526 525 0
-526 36 0
527 -907 -524 0
-527 907 0
-527 524 0
528 -748 -27 0
-528 748 0
-528 27 0
529 -528 -38 0
-529 528 0
-529 38 0
530 -908 -527 0
-530 908 0
-530 527 0
531 -33 -32 0
-531 33 0
-531 32 0
532 -531 -794 0
-532 531 0
-532 794 0
533 -909 -530 0
-533 909 0
-533 530 0
534 -11 -5 0
-534 11 0
-534 5 0
535 -534 -809 0
-535 534 0
-535 809 0
536 -910 -533 0
-536 910 0
-536 533 0
537 -727 -17 0
-537 727 0
-537 17 0
538 -537 -26 0
-538 537 0
-538 26 0
539 -911 -536 0
-539 911 0
-539 536 0
540 -768 -701 0
-540 768 0
-540 701 0
541 -540 -791 0
-541 540 0
-541 791 0
542 -912 -539 0
-542 912 0
-542 539 0
543 -31 -724 0
-543 31 0
-543 724 0
544 -543 -3 0
-544 543 0
-544 3 0
545 -913 -542 0
-545 913 0
-545 542 0
546 -44 -8 0
-546 44 0
-546 8 0
547 -546 -791 0
-547 546 0
-547 791 0
548 -914 -545 0
-548 914 0
-548 545 0
549 -882 -4 0
-549 882 0
-549 4 0
550 -549 -791 0
-550 549 0
-550 791 0
551 -915 -548 0
-551 915 0
-551 548 0
552 -748 -743 0
-552 748 0
-552 743 0
553 -552 -50 0
-553 552 0
-553 50 0
554 -916 -551 0
-554 916 0
-554 551 0
555 -31 -30 0
-555 31 0
-555 30 0
556 -555 -5 0
-556 555 0
-556 5 0
557 -917 -554 0
-557 917 0
-557 554 0
558 -46 -24 0
-558 46 0
-558 24 0
559 -558 -12 0
-559 558 0
-559 12 0
560 -918 -557 0
-560 918 0
-560 557 0
561 -20 -704 0
-561 20 0
-561 704 0
562 -561 -753 0
-562 561 0
-562 753 0
563 -919 -560 0
-563 919 0
-563 560 0
564 -725 -711 0
-564 725 0
-564 711 0
565 -564 -734 0
-565 564 0
-565 734 0
566 -920 -563 0
-566 920 0
-566 563 0
567 -39 -24 0
-567 39 0
-567 24 0
568 -567 -709 0
-568 567 0
-568 709 0
569 -921 -566 0
-569 921 0
-569 566 0
570 -713 -705 0
-570 713 0
-570 705 0
571 -570 -756 0
-571 570 0
-571 756 0
572 -922 -569 0
-572 922 0
-572 569 0
573 -759 -14 0
-573 759 0
-573 14 0
574 -573 -794 0
-574 573 0
-574 794 0
575 -923 -572 0
-575 923 0
-575 572 0
576 -25 -812 0
-576 25 0
-576 812 0
577 -576 -20 0
-577 576 0
-577 20 0
578 -924 -575 0
-578 924 0
-578 575 0
579 -723 -3 0
-579 723 0
-579 3 0
580 -579 -734 0
-580 579 0
-580 734 0
581 -925 -578 0
-581 925 0
-581 578 0
582 -32 -10 0
-582 32 0
-582 10 0
583 -582 -926 0
-583 582 0
-583 926 0
584 -927 -581 0
-584 927 0
-584 581 0
585 -33 -8 0
-585 33 0
-585 8 0
586 -585 -734 0
-586 585 0
-586 734 0
587 -928 -584 0
-587 928 0
-587 584 0
588 -33 -711 0
-588 33 0
-588 711 0
589 -588 -734 0
-589 588 0
-589 734 0
590 -929 -587 0
-590 929 0
-590 587 0
591 -741 -11 0
-591 741 0
-591 11 0
592 -591 -719 0
-592 591 0
-592 719 0
593 -930 -590 0
-593 930 0
-593 590 0
594 -716 -2 0
-594 716 0
-594 2 0
595 -594 -6 0
-595 594 0
-595 6 0
596 -931 -593 0
-596 931 0
-596 593 0
597 -38 -728 0
-597 38 0
-597 728 0
598 -597 -716 0
-598 597 0
-598 716 0
599 -932 -596 0
-599 932 0
-599 596 0
600 -802 -1 0
-600 802 0
-600 1 0
601 -600 -728 0
-601 600 0
-601 728 0
602 -933 -599 0
-602 933 0
-602 599 0
603 -763 -825 0
-603 763 0
-603 825 0
604 -603 -741 0
-604 603 0
-604 741 0
605 -934 -602 0
-605 934 0
-605 602 0
606 -935 -882 0
-606 935 0
-606 882 0
607 -606 -720 0
-607 606 0
-607 720 0
608 -936 -605 0
-608 936 0
-608 605 0
609 -748 -719 0
-609 748 0
-609 719 0
610 -609 -707 0
-610 609 0
-610 707 0
611 -937 -608 0
-611 937 0
-611 608 0
612 -149 -713 0
-612 149 0
-612 713 0
613 -938 -611 0
-613 938 0
-613 611 0
614 -841 -15 0
-614 841 0
-614 15 0
615 -614 -7 0
-615 614 0
-615 7 0
616 -939 -613 0
-616 939 0
-616 613 0
617 -759 -9 0
-617 759 0
-617 9 0
618 -617 -725 0
-618 617 0
-618 725 0
619 -940 -616 0
-619 940 0
-619 616 0
620 -725 -1 0
-620 725 0
-620 1 0
621 -620 -16 0
-621 620 0
-621 16 0
622 -941 -619 0
-622 941 0
-622 619 0
623 -41 -737 0
-623 41 0
-623 737 0
624 -623 -43 0
-624 623 0
-624 43 0
625 -942 -622 0
-625 942 0
-625 622 0
626 -30 -9 0
-626 30 0
-626 9 0
627 -626 -3 0
-627 626 0
-627 3 0
628 -943 -625 0
-628 943 0
-628 625 0
629 -28 -24 0
-629 28 0
-629 24 0
630 -629 -43 0
-630 629 0
-630 43 0
631 -944 -628 0
-631 944 0
-631 628 0
632 -28 -807 0
-632 28 0
-632 807 0
633 -632 -740 0
-633 632 0
-633 740 0
634 -945 -631 0
-634 945 0
-634 631 0
635 -736 -825 0
-635 736 0
-635 825 0
636 -635 -23 0
-636 635 0
-636 23 0
637 -946 -634 0
-637 946 0
-637 634 0
638 -34 -30 0
-638 34 0
-638 30 0
639 -638 -29 0
-639 638 0
-639 29 0
640 -947 -637 0
-640 947 0
-640 637 0
641 -629 -719 0
-641 629 0
-641 719 0
642 -948 -640 0
-642 948 0
-642 640 0
643 -820 -38 0
-643 820 0
-643 38 0
644 -643 -48 0
-644 643 0
-644 48 0
645 -949 -642 0
-645 949 0
-645 642 0
646 -809 -829 0
-646 809 0
-646 829 0
647 -646 -709 0
-647 646 0
-647 709 0
648 -950 -645 0
-648 950 0
-648 645 0
649 -23 -700 0
-649 23 0
-649 700 0
650 -649 -935 0
-650 649 0
-650 935 0
651 -951 -648 0
-651 951 0
-651 648 0
652 -720 -704 0
-652 720 0
-652 704 0
653 -652 -800 0
-653 652 0
-653 800 0
654 -952 -651 0
-654 952 0
-654 651 0
655 -802 -719 0
-655 802 0
-655 719 0
656 -655 -38 0
-656 655 0
-656 38 0
657 -953 -654 0
-657 953 0
-657 654 0
658 -763 -753 0
-658 763 0
-658 753 0
659 -658 -29 0
-659 658 0
-659 29 0
660 -954 -657 0
-660 954 0
-660 657 0
661 -41 -736 0
-661 41 0
-661 736 0
662 -661 -33 0
-662 661 0
-662 33 0
663 -955 -660 0
-663 955 0
-663 660 0
664 -40 -30 0
-664 40 0
-664 30 0
665 -664 -14 0
-665 664 0
-665 14 0
666 -956 -663 0
-666 956 0
-666 663 0
667 -32 -30 0
-667 32 0
-667 30 0
668 -667 -33 0
-668 667 0
-668 33 0
669 -957 -666 0
-669 957 0
-669 666 0
670 -841 -825 0
-670 841 0
-670 825 0
671 -670 -9 0
-671 670 0
-671 9 0
672 -958 -669 0
-672 958 0
-672 669 0
673 -30 -812 0
-673 30 0
-673 812 0
674 -673 -701 0
-674 673 0
-674 701 0
675 -959 -672 0
-675 959 0
-675 672 0
676 -794 -725 0
-676 794 0
-676 725 0
677 -676 -38 0
-677 676 0
-677 38 0
678 -960 -675 0
-678 960 0
-678 675 0
679 -711 -737 0
-679 711 0
-679 737 0
680 -679 -44 0
-680 679 0
-680 44 0
681 -961 -678 0
-681 961 0
-681 678 0
682 -741 -1 0
-682 741 0
-682 1 0
683 -682 -882 0
-683 682 0
-683 882 0
684 -962 -681 0
-684 962 0
-684 681 0
685 -825 -719 0
-685 825 0
-685 719 0
686 -685 -48 0
-686 685 0
-686 48 0
687 -963 -684 0
-687 963 0
-687 684 0
688 -707 -704 0
-688 707 0
-688 704 0
689 -688 -16 0
-689 688 0
-689 16 0
690 -964 -687 0
-690 964 0
-690 687 0
691 -28 -9 0
-691 28 0
-691 9 0
692 -691 -707 0
-692 691 0
-692 707 0
693 -965 -690 0
-693 965 0
-693 690 0
694 -763 -741 0
-694 763 0
-694 741 0
695 -694 -5 0
-695 694 0
-695 5 0
696 -966 -693 0
-696 966 0
-696 693 0
697 -3 -728 0
-697 3 0
-697 728 0
698 -697 -716 0
-698 697 0
-698 716 0
699 -967 -696 0
-699 967 0
-699 696 0
-700 -1 0
700 1 0
-701 -6 0
701 6 0
-702 -54 0
702 54 0
-703 -52 0
703 52 0
-704 -8 0
704 8 0
-705 -7 0
705 7 0
-706 -57 0
706 57 0
-707 -10 0
707 10 0
-708 -60 0
708 60 0
-709 -13 0
709 13 0
-710 -63 0
710 63 0
-711 -14 0
711 14 0
-712 -66 0
712 66 0
-713 -16 0
713 16 0
-714 -15 0
714 15 0
-715 -69 0
715 69 0
-716 -18 0
716 18 0
-717 -72 0
717 72 0
-718 -75 0
718 75 0
-719 -5 0
719 5 0
-720 -22 0
720 22 0
-721 -78 0
721 78 0
-722 -81 0
722 81 0
-723 -25 0
723 25 0
-724 -24 0
724 24 0
-725 -26 0
725 26 0
-726 -84 0
726 84 0
-727 -27 0
727 27 0
-728 -2 0
728 2 0
-729 -87 0
729 87 0
-730 -90 0
730 90 0
-731 -29 0
731 29 0
-732 -93 0
732 93 0
-733 -96 0
733 96 0
-734 -12 0
734 12 0
-735 -99 0
735 99 0
-736 -32 0
736 32 0
-737 -11 0
737 11 0
-738 -102 0
738 102 0
-739 -105 0
739 105 0
-740 -31 0
740 31 0
-741 -23 0
741 23 0
-742 -108 0
742 108 0
-743 -17 0
743 17 0
-744 -111 0
744 111 0
-745 -33 0
745 33 0
-746 -114 0
746 114 0
-747 -117 0
747 117 0
-748 -34 0
748 34 0
-749 -120 0
749 120 0
-750 -123 0
750 123 0
-751 -126 0
751 126 0
-752 -129 0
752 129 0
-753 -36 0
753 36 0
-754 -132 0
754 132 0
-755 -135 0
755 135 0
-756 -19 0
756 19 0
-757 -138 0
757 138 0
-758 -141 0
758 141 0
-759 -20 0
759 20 0
-760 -144 0
760 144 0
-761 -147 0
761 147 0
-762 -150 0
762 150 0
-763 -39 0
763 39 0
-764 -153 0
764 153 0
-765 -156 0
765 156 0
-766 -159 0
766 159 0
-767 -162 0
767 162 0
-768 -35 0
768 35 0
-769 -165 0
769 165 0
-770 -168 0
770 168 0
-771 -42 0
771 42 0
-772 -171 0
772 171 0
-773 -174 0
773 174 0
-774 -177 0
774 177 0
-775 -180 0
775 180 0
-776 -183 0
776 183 0
-777 -186 0
777 186 0
-778 -189 0
778 189 0
-779 -192 0
779 192 0
-780 -41 0
780 41 0
-781 -195 0
781 195 0
-782 -198 0
782 198 0
-783 -201 0
783 201 0
-784 -3 0
784 3 0
-785 -204 0
785 204 0
-786 -207 0
786 207 0
-787 -210 0
787 210 0
-788 -213 0
788 213 0
-789 -43 0
789 43 0
-790 -216 0
790 216 0
-791 -47 0
791 47 0
-792 -219 0
792 219 0
-793 -222 0
793 222 0
-794 -46 0
794 46 0
-795 -225 0
795 225 0
-796 -227 0
796 227 0
-797 -230 0
797 230 0
-798 -233 0
798 233 0
-799 -236 0
799 236 0
-800 -38 0
800 38 0
-801 -239 0
801 239 0
-802 -9 0
802 9 0
-803 -242 0
803 242 0
-804 -245 0
804 245 0
-805 -248 0
805 248 0
-806 -250 0
806 250 0
-807 -4 0
807 4 0
-808 -253 0
808 253 0
-809 -48 0
809 48 0
-810 -256 0
810 256 0
-811 -259 0
811 259 0
-812 -21 0
812 21 0
-813 -262 0
813 262 0
-814 -265 0
814 265 0
-815 -268 0
815 268 0
-816 -271 0
816 271 0
-817 -274 0
817 274 0
-818 -277 0
818 277 0
-819 -280 0
819 280 0
-820 -45 0
820 45 0
-821 -283 0
821 283 0
-822 -286 0
822 286 0
-823 -289 0
823 289 0
-824 -292 0
824 292 0
-825 -28 0
825 28 0
-826 -295 0
826 295 0
-827 -298 0
827 298 0
-828 -301 0
828 301 0
-829 -44 0
829 44 0
-830 -304 0
830 304 0
-831 -307 0
831 307 0
-832 -310 0
832 310 0
-833 -313 0
833 313 0
-834 -316 0
834 316 0
-835 -319 0
835 319 0
-836 -322 0
836 322 0
-837 -325 0
837 325 0
-838 -328 0
838 328 0
-839 -331 0
839 331 0
-840 -334 0
840 334 0
-841 -30 0
841 30 0
-842 -337 0
842 337 0
-843 -340 0
843 340 0
-844 -343 0
844 343 0
-845 -346 0
845 346 0
-846 -349 0
846 349 0
-847 -352 0
847 352 0
-848 -355 0
848 355 0
-849 -358 0
849 358 0
-850 -361 0
850 361 0
-851 -364 0
851 364 0
-852 -367 0
852 367 0
-853 -370 0
853 370 0
-854 -373 0
854 373 0
-855 -376 0
855 376 0
-856 -379 0
856 379 0
-857 -382 0
857 382 0
-858 -40 0
858 40 0
-859 -385 0
859 385 0
-860 -388 0
860 388 0
-861 -391 0
861 391 0
-862 -394 0
862 394 0
-863 -397 0
863 397 0
-864 -400 0
864 400 0
-865 -403 0
865 403 0
-866 -406 0
866 406 0
-867 -409 0
867 409 0
-868 -412 0
868 412 0
-869 -415 0
869 415 0
-870 -418 0
870 418 0
-871 -421 0
871 421 0
-872 -424 0
872 424 0
-873 -427 0
873 427 0
-874 -430 0
874 430 0
-875 -433 0
875 433 0
-876 -436 0
876 436 0
-877 -439 0
877 439 0
-878 -442 0
878 442 0
-879 -445 0
879 445 0
-880 -448 0
880 448 0
-881 -451 0
881 451 0
-882 -37 0
882 37 0
-883 -454 0
883 454 0
-884 -457 0
884 457 0
-885 -460 0
885 460 0
-886 -463 0
886 463 0
-887 -466 0
887 466 0
-888 -469 0
888 469 0
-889 -472 0
889 472 0
-890 -475 0
890 475 0
-891 -478 0
891 478 0
-892 -481 0
892 481 0
-893 -484 0
893 484 0
-894 -487 0
894 487 0
-895 -490 0
895 490 0
-896 -493 0
896 493 0
-897 -496 0
897 496 0
-898 -499 0
898 499 0
-899 -502 0
899 502 0
-900 -505 0
900 505 0
-901 -508 0
901 508 0
-902 -511 0
902 511 0
-903 -514 0
903 514 0
-904 -517 0
904 517 0
-905 -520 0
905 520 0
-906 -523 0
906 523 0
-907 -526 0
907 526 0
-908 -529 0
908 529 0
-909 -532 0
909 532 0
-910 -535 0
910 535 0
-911 -538 0
911 538 0
-912 -541 0
912 541 0
-913 -544 0
913 544 0
-914 -547 0
914 547 0
-915 -550 0
915 550 0
-916 -553 0
916 553 0
-917 -556 0
917 556 0
-918 -559 0
918 559 0
-919 -562 0
919 562 0
-920 -565 0
920 565 0
-921 -568 0
921 568 0
-922 -571 0
922 571 0
-923 -574 0
923 574 0
-924 -577 0
924 577 0
-925 -580 0
925 580 0
-926 -50 0
926 50 0
-927 -583 0
927 583 0
-928 -586 0
928 586 0
-929 -589 0
929 589 0
-930 -592 0
930 592 0
-931 -595 0
931 595 0
-932 -598 0
932 598 0
-933 -601 0
933 601 0
-934 -604 0
934 604 0
-935 -49 0
935 49 0
-936 -607 0
936 607 0
-937 -610 0
937 610 0
-938 -612 0
938 612 0
-939 -615 0
939 615 0
-940 -618 0
940 618 0
-941 -621 0
941 621 0
-942 -624 0
942 624 0
-943 -627 0
943 627 0
-944 -630 0
944 630 0
-945 -633 0
945 633 0
-946 -636 0
946 636 0
-947 -639 0
947 639 0
-948 -641 0
948 641 0
-949 -644 0
949 644 0
-950 -647 0
950 647 0
-951 -650 0
951 650 0
-952 -653 0
952 653 0
-953 -656 0
953 656 0
-954 -659 0
954 659 0
-955 -662 0
955 662 0
-956 -665 0
956 665 0
-957 -668 0
957 668 0
-958 -671 0
958 671 0
-959 -674 0
959 674 0
-960 -677 0
960 677 0
-961 -680 0
961 680 0
-962 -683 0
962 683 0
-963 -686 0
963 686 0
-964 -689 0
964 689 0
-965 -692 0
965 692 0
-966 -695 0
966 695 0
-967 -698 0
967 698 0
699 0
